DIMENSION: 20
EDGE_WEIGHT_TYPE: EXPLICIT
EDGE_WEIGHT_FORMAT: FULL_MATRIX
EDGE_WEIGHT_SECTION:
32767 88 41 51 32767 32767 18 32767 32767 45 32767 63 32767 32767 92 32767 54 32767 32767 87 
88 32767 25 32767 32767 46 34 32767 32767 36 32767 78 10 32767 32767 14 51 80 32767 32767 
41 25 32767 32767 55 32767 32767 32767 32767 43 18 32767 29 32767 8 32767 32767 78 32767 32767 
51 32767 32767 32767 53 32767 32767 32767 32767 32767 15 32767 32767 31 32767 32767 32767 32767 32767 26 
32767 32767 55 53 32767 66 3 32767 32767 32 32767 32767 26 36 32767 11 29 32767 3 32767 
32767 46 32767 32767 66 32767 32767 7 32767 32767 32767 32767 16 32767 18 32767 78 32767 32767 32767 
18 34 32767 32767 3 32767 32767 32767 32767 17 88 32767 32767 32767 32767 32767 76 32767 82 32767 
32767 32767 32767 32767 32767 7 32767 32767 24 14 32767 32767 32767 32767 32767 32767 32767 32767 32767 32767 
32767 32767 32767 32767 32767 32767 32767 24 32767 32767 40 32767 32767 24 94 32767 64 59 32767 32767 
45 36 43 32767 32 32767 17 14 32767 32767 32767 32767 89 4 32767 64 32767 32767 73 32767 
32767 32767 18 15 32767 32767 88 32767 40 32767 32767 32767 32767 32767 44 32767 32767 32767 72 64 
63 78 32767 32767 32767 32767 32767 32767 32767 32767 32767 32767 32767 22 96 3 32767 32767 32767 32767 
32767 10 29 32767 26 16 32767 32767 32767 89 32767 32767 32767 32767 32767 32767 32767 32767 27 42 
32767 32767 32767 31 36 32767 32767 32767 24 4 32767 22 32767 32767 32767 94 32767 32767 32767 32767 
92 32767 8 32767 32767 18 32767 32767 94 32767 44 96 32767 32767 32767 32767 86 30 54 87 
32767 14 32767 32767 11 32767 32767 32767 32767 64 32767 3 32767 94 32767 32767 32767 48 32767 32767 
54 51 32767 32767 29 78 76 32767 64 32767 32767 32767 32767 32767 86 32767 32767 32767 32767 32767 
32767 80 78 32767 32767 32767 32767 32767 59 32767 32767 32767 32767 32767 30 48 32767 32767 32767 32767 
32767 32767 32767 32767 3 32767 82 32767 32767 73 72 32767 27 32767 54 32767 32767 32767 32767 32767 
87 32767 32767 26 32767 32767 32767 32767 32767 32767 64 32767 42 32767 87 32767 32767 32767 32767 32767 
EOF